c proof-methods-refutation-v0 PHP(3,2)
c Variables x_{p,h} mean pigeon p is assigned to hole h.
c Variable number is 2*p + h + 1 for p in 0..2 and h in 0..1.
c Clauses require each pigeon to choose exactly one hole and no two pigeons
c to share a hole. The contradiction is the refutation target.
p cnf 6 12
1 2 0
-1 -2 0
3 4 0
-3 -4 0
5 6 0
-5 -6 0
-1 -3 0
-1 -5 0
-3 -5 0
-2 -4 0
-2 -6 0
-4 -6 0
